examples/inputs/input26.dzn
n = 64;
l = 450;
s = 400;
r = 400;
f = 100;
forbidden = [| 40, 37
	| 39, 16
	| 34, 22
	| 16, 14
	| 62, 38
	| 44, 43
	| 21, 37
	| 26, 26
	| 18, 37
	| 62, 13
	| 25, 31
	| 51, 53
	| 30, 22
	| 4, 19
	| 2, 21
	| 23, 51
	| 22, 46
	| 35, 39
	| 44, 50
	| 19, 4
	| 63, 17
	| 49, 7
	| 39, 33
	| 57, 61
	| 34, 10
	| 57, 26
	| 52, 4
	| 5, 44
	| 54, 35
	| 41, 34
	| 52, 20
	| 17, 54
	| 1, 39
	| 56, 5
	| 7, 57
	| 49, 2
	| 23, 26
	| 41, 31
	| 58, 60
	| 13, 27
	| 41, 33
	| 51, 14
	| 6, 37
	| 63, 9
	| 43, 43
	| 55, 63
	| 46, 13
	| 5, 62
	| 36, 29
	| 57, 9
	| 33, 9
	| 30, 39
	| 26, 28
	| 41, 36
	| 27, 55
	| 58, 24
	| 11, 38
	| 32, 2
	| 57, 28
	| 49, 3
	| 28, 47
	| 9, 28
	| 60, 32
	| 44, 13
	| 38, 19
	| 10, 34
	| 25, 28
	| 22, 8
	| 61, 47
	| 53, 54
	| 8, 28
	| 22, 22
	| 25, 20
	| 21, 27
	| 47, 33
	| 37, 29
	| 32, 54
	| 53, 21
	| 2, 12
	| 40, 44
	| 43, 3
	| 14, 7
	| 14, 2
	| 30, 53
	| 2, 60
	| 27, 42
	| 51, 5
	| 60, 61
	| 55, 43
	| 62, 43
	| 8, 3
	| 18, 32
	| 19, 47
	| 64, 28
	| 27, 3
	| 30, 19
	| 10, 15
	| 1, 5
	| 61, 43
	| 44, 23
	|];