examples/inputs/input26.lp
#const n = 64.
#const l = 450.
#const s = 400.
#const r = 400.
#const f = 100.
val(40, 37, xxx).
val(39, 16, xxx).
val(34, 22, xxx).
val(16, 14, xxx).
val(62, 38, xxx).
val(44, 43, xxx).
val(21, 37, xxx).
val(26, 26, xxx).
val(18, 37, xxx).
val(62, 13, xxx).
val(25, 31, xxx).
val(51, 53, xxx).
val(30, 22, xxx).
val(4, 19, xxx).
val(2, 21, xxx).
val(23, 51, xxx).
val(22, 46, xxx).
val(35, 39, xxx).
val(44, 50, xxx).
val(19, 4, xxx).
val(63, 17, xxx).
val(49, 7, xxx).
val(39, 33, xxx).
val(57, 61, xxx).
val(34, 10, xxx).
val(57, 26, xxx).
val(52, 4, xxx).
val(5, 44, xxx).
val(54, 35, xxx).
val(41, 34, xxx).
val(52, 20, xxx).
val(17, 54, xxx).
val(1, 39, xxx).
val(56, 5, xxx).
val(7, 57, xxx).
val(49, 2, xxx).
val(23, 26, xxx).
val(41, 31, xxx).
val(58, 60, xxx).
val(13, 27, xxx).
val(41, 33, xxx).
val(51, 14, xxx).
val(6, 37, xxx).
val(63, 9, xxx).
val(43, 43, xxx).
val(55, 63, xxx).
val(46, 13, xxx).
val(5, 62, xxx).
val(36, 29, xxx).
val(57, 9, xxx).
val(33, 9, xxx).
val(30, 39, xxx).
val(26, 28, xxx).
val(41, 36, xxx).
val(27, 55, xxx).
val(58, 24, xxx).
val(11, 38, xxx).
val(32, 2, xxx).
val(57, 28, xxx).
val(49, 3, xxx).
val(28, 47, xxx).
val(9, 28, xxx).
val(60, 32, xxx).
val(44, 13, xxx).
val(38, 19, xxx).
val(10, 34, xxx).
val(25, 28, xxx).
val(22, 8, xxx).
val(61, 47, xxx).
val(53, 54, xxx).
val(8, 28, xxx).
val(22, 22, xxx).
val(25, 20, xxx).
val(21, 27, xxx).
val(47, 33, xxx).
val(37, 29, xxx).
val(32, 54, xxx).
val(53, 21, xxx).
val(2, 12, xxx).
val(40, 44, xxx).
val(43, 3, xxx).
val(14, 7, xxx).
val(14, 2, xxx).
val(30, 53, xxx).
val(2, 60, xxx).
val(27, 42, xxx).
val(51, 5, xxx).
val(60, 61, xxx).
val(55, 43, xxx).
val(62, 43, xxx).
val(8, 3, xxx).
val(18, 32, xxx).
val(19, 47, xxx).
val(64, 28, xxx).
val(27, 3, xxx).
val(30, 19, xxx).
val(10, 15, xxx).
val(1, 5, xxx).
val(61, 43, xxx).
val(44, 23, xxx).